2	25
553	583	348	788	954	809	844	777	153	267	546	775	958	213	406	636	763	222	358	87	821	966	63	289	347	
960	738	765	364	450	861	991	722	794	589	611	145	545	845	364	929	553	193	378	431	817	385	40	223	907	
1825	1825	
